
<<< setup



Le degré maximum du graphe est : 99


Le nombre d'arrètes du graphe simple correspondant est : 1628.5

<<< generate

Tried aggregator 2 times.
MIP Presolve eliminated 157652 rows and 1344 columns.
MIP Presolve modified 5809 coefficients.
Aggregator did 1608 substitutions.
Reduced MIP has 3320 rows, 1883 columns, and 8850 nonzeros.
Reduced MIP has 1438 binaries, 445 generals, 0 SOSs, and 0 indicators.
Presolve time =    0,20 sec.
Clique table members: 449.
MIP emphasis: balance optimality and feasibility.
MIP search method: dynamic search.
Parallel mode: deterministic, using up to 2 threads.
Root relaxation solution time =    0,05 sec.

        Nodes                                         Cuts/
   Node  Left     Objective  IInf  Best Integer     Best Node    ItCnt     Gap

      0     0       10,0000   763                     10,0000     1222         
      0     0       10,0000   375                   Cuts: 389     1627         
      0     0       10,0000   261                   Cuts: 268     1840         
      0     0       10,0000   223                    Cuts: 98     1959         
      0     0       10,0000   208                    Cuts: 71     2065         
      0     0       10,0000   223                    Cuts: 40     2133         
      0     0       10,0000   192                    Cuts: 42     2196         
      0     0       10,0000   186                    Cuts: 23     2231         
      0     2       10,0000   186                     10,0000     2231         
    100   102       10,0000    85                     10,0000     3101         
    200   202       10,0000    71                     10,0000     5067         
    300   302       11,0000    66                     10,0000     6409         
    400   402       14,0000    15                     10,0000     7058         
*   441   436      integral     0       14,0000       10,0000     7318   28,57%
    500   444       11,0000    86       14,0000       10,0000     7966   28,57%
*   536+  476                           13,0000       10,0000     8323   23,08%
    600   479       11,0000   117       13,0000       10,0000    12863   23,08%
    700   523       10,0000    98       13,0000       10,0000    13870   23,08%
    800   577       11,0000    67       13,0000       10,0000    14986   23,08%
    900   611    infeasible             13,0000       10,0000    15787   23,08%
   1000   648       12,0000    47       13,0000       10,0000    16921   23,08%
Elapsed real time =  18,04 sec. (tree size =  0,73 MB, solutions = 5)
   1100   685       12,0000    21       13,0000       10,0000    17925   23,08%
   1200   725       12,0000    42       13,0000       10,0000    19030   23,08%
   1300   759       11,0000    66       13,0000       10,0000    19918   23,08%
   1400   795       11,0000    32       13,0000       10,0000    20585   23,08%
   1500   851       12,0000    57       13,0000       10,0000    21395   23,08%
   1600   937       11,0000    74       13,0000       10,0000    22188   23,08%
   1700  1029    infeasible             13,0000       10,0000    22743   23,08%
   1800  1109       11,0000    61       13,0000       10,0000    23475   23,08%
   1900  1195       12,0000    20       13,0000       10,0000    24230   23,08%
   2000  1282       12,0000    64       13,0000       10,0000    25158   23,08%
Elapsed real time =  30,70 sec. (tree size =  1,48 MB, solutions = 5)
   2100  1370       12,0000    42       13,0000       10,0000    25935   23,08%
   2200  1452       12,0000    56       13,0000       10,0000    27096   23,08%
   2300  1540       11,0000    77       13,0000       10,0000    28159   23,08%
   2400  1626    infeasible             13,0000       10,0000    28677   23,08%
   2500  1712       12,0000    58       13,0000       10,0000    29489   23,08%
   2600  1800       12,0000    56       13,0000       10,0000    30435   23,08%
   2700  1892       12,0000    19       13,0000       10,0000    30903   23,08%
   2800  1975       11,0000    48       13,0000       10,0000    31844   23,08%
   2900  2069       12,0000    20       13,0000       10,0000    32616   23,08%
   3000  2155       11,0000    65       13,0000       10,0000    33865   23,08%
Elapsed real time =  41,02 sec. (tree size =  2,54 MB, solutions = 5)
   3100  2247       12,0000    38       13,0000       10,0000    34551   23,08%
   3200  2329    infeasible             13,0000       10,0000    35719   23,08%
   3300  2413       12,0000    25       13,0000       10,0000    36337   23,08%
   3400  2497       11,0000    83       13,0000       10,0000    37386   23,08%
   3500  2587       12,0000    29       13,0000       10,0000    37798   23,08%
   3600  2667       12,0000    28       13,0000       10,0000    38531   23,08%
   3700  2757       12,0000    62       13,0000       10,0000    39399   23,08%
   3800  2841       12,0000    22       13,0000       10,0000    40117   23,08%
   3900  2919       11,0000    85       13,0000       10,0000    40943   23,08%
   4000  3013       12,0000    40       13,0000       10,0000    41468   23,08%
Elapsed real time =  54,16 sec. (tree size =  3,53 MB, solutions = 5)
   4100  3097       12,0000    25       13,0000       10,0000    42169   23,08%
   4200  3189       11,0000    47       13,0000       10,0000    42826   23,08%
   4300  3267       11,0000    90       13,0000       10,0000    43907   23,08%
   4400  3355       12,0000    23       13,0000       10,0000    44473   23,08%
   4500  3441       12,0000    23       13,0000       10,0000    45165   23,08%
   4600  3535       12,0000    41       13,0000       10,0000    45757   23,08%
   4700  3619       11,0000    53       13,0000       10,0000    46544   23,08%
   4800  3705       12,0000    61       13,0000       10,0000    47405   23,08%
   4900  3793       12,0000    48       13,0000       10,0000    48023   23,08%
